
Gurobi 10.0.1 (linux64) logging started Sun Nov 26 15:56:20 2023

Set parameter LogFile to value "ArtificialInstance/ExperimentV2/S2T4K3/AdRo/gurobiDoRo59.txt"
Gurobi Optimizer version 10.0.1 build v10.0.1rc0 (linux64)

CPU model: AMD EPYC 7H12 64-Core Processor, instruction set [SSE2|AVX|AVX2]
Thread count: 128 physical cores, 128 logical processors, using up to 32 threads

Academic license 656792 - for non-commercial use only - registered to b.___@student.vu.nl
Optimize a model with 13022 rows, 12259 columns and 47576 nonzeros
Model fingerprint: 0xd371da6d
Variable types: 1 continuous, 12258 integer (12258 binary)
Coefficient statistics:
  Matrix range     [1e+00, 4e+01]
  Objective range  [1e+00, 2e+01]
  Bounds range     [1e+00, 1e+00]
  RHS range        [1e+00, 1e+00]
Presolve removed 6831 rows and 6438 columns
Presolve time: 0.14s
Presolved: 6191 rows, 5821 columns, 22633 nonzeros
Variable types: 1 continuous, 5820 integer (5820 binary)
Found heuristic solution: objective 104.8166878

Root relaxation: objective 9.608317e+01, 1534 iterations, 0.06 seconds (0.04 work units)

    Nodes    |    Current Node    |     Objective Bounds      |     Work
 Expl Unexpl |  Obj  Depth IntInf | Incumbent    BestBd   Gap | It/Node Time

H    0     0                      96.0831744   63.07084  34.4%     -    0s
     0     0          -    0        96.08317   96.08317  0.00%     -    0s

Explored 1 nodes (2702 simplex iterations) in 0.28 seconds (0.20 work units)
Thread count was 32 (of 128 available processors)

Solution count 2: 96.0832 104.817 

Optimal solution found (tolerance 1.00e-04)
Best objective 9.608317442183e+01, best bound 9.608317442183e+01, gap 0.0000%
